jobs  (incl. supersource/sink ):	102
RESOURCES
- renewable                 : 4 R
- nonrenewable              : 2 N
- doubly constrained        : 0 D
************************************************************************
PRECEDENCE RELATIONS:
jobnr.    #modes  #successors   successors
1	1	26		2 3 4 5 6 7 8 9 10 11 12 13 14 15 16 18 19 20 23 24 26 28 29 31 37 52 
2	9	13		74 60 59 58 55 50 39 32 30 27 25 21 17 
3	9	15		85 84 74 71 66 65 62 56 55 48 45 39 38 34 17 
4	9	12		82 81 74 67 62 57 54 50 39 38 32 27 
5	9	12		101 81 74 61 60 56 55 54 49 41 40 22 
6	9	11		90 87 81 74 64 60 59 58 53 30 25 
7	9	12		85 84 82 74 71 66 58 56 55 53 36 17 
8	9	14		84 82 74 72 71 69 66 63 59 55 46 44 39 33 
9	9	17		92 89 83 82 73 71 66 63 58 57 54 51 49 45 44 43 41 
10	9	19		98 91 90 88 86 85 84 81 74 71 66 64 63 62 61 57 48 47 32 
11	9	17		101 91 89 85 84 83 81 78 71 62 58 55 54 53 41 38 36 
12	9	17		99 95 89 88 85 84 81 80 71 69 65 62 59 50 46 40 38 
13	9	12		88 83 81 72 69 68 64 62 59 53 42 30 
14	9	15		100 91 89 87 84 83 73 71 70 65 63 62 53 51 35 
15	9	11		100 96 85 78 71 64 55 53 49 41 39 
16	9	7		92 88 82 70 66 62 27 
17	9	14		101 100 97 89 87 81 73 72 70 67 64 63 49 41 
18	9	12		100 96 95 85 82 71 69 65 55 49 39 38 
19	9	14		91 87 83 74 73 71 69 65 64 62 56 55 53 51 
20	9	12		94 91 88 85 82 71 64 58 56 55 41 38 
21	9	16		100 96 92 91 89 88 84 83 71 66 65 64 63 62 56 41 
22	9	20		100 98 96 95 93 91 90 89 87 85 84 76 73 72 71 70 67 65 64 62 
23	9	20		99 98 97 95 94 93 91 90 89 88 87 86 85 83 80 71 70 69 67 58 
24	9	19		100 97 96 95 92 89 85 84 82 80 72 71 70 69 65 64 63 62 59 
25	9	17		98 97 96 92 91 88 85 83 82 70 69 66 65 62 57 56 51 
26	9	19		101 100 96 95 94 93 92 91 90 89 87 84 80 72 70 69 65 64 63 
27	9	12		100 96 91 89 85 84 72 71 64 63 56 41 
28	9	16		101 98 95 93 92 89 86 84 82 80 78 71 70 69 62 58 
29	9	12		101 99 95 90 89 88 79 71 63 58 48 47 
30	9	9		100 92 89 86 79 65 63 57 54 
31	9	11		97 96 94 92 88 85 79 76 72 69 45 
32	9	13		101 100 97 96 94 93 92 89 87 79 76 69 65 
33	9	12		98 97 92 90 89 87 86 85 81 77 76 57 
34	9	9		100 96 94 91 90 87 76 75 53 
35	9	5		97 94 85 78 41 
36	9	10		100 99 98 95 88 80 79 77 76 72 
37	9	8		90 89 84 78 77 76 70 69 
38	9	8		98 97 93 87 86 77 76 70 
39	9	8		98 91 89 83 80 76 75 73 
40	9	8		100 97 86 83 82 77 76 70 
41	9	7		99 98 95 93 90 77 69 
42	9	6		97 96 84 80 77 70 
43	9	6		96 95 88 78 76 69 
44	9	5		93 88 85 76 62 
45	9	6		95 87 80 78 77 75 
46	9	6		96 94 92 90 77 76 
47	9	6		96 94 93 80 76 75 
48	9	5		96 87 78 76 69 
49	9	5		94 91 86 80 75 
50	9	5		97 96 94 78 77 
51	9	4		86 80 78 72 
52	9	3		91 80 63 
53	9	4		98 97 92 80 
54	9	4		97 93 80 76 
55	9	3		90 76 70 
56	9	3		80 79 78 
57	9	3		99 95 75 
58	9	3		100 96 76 
59	9	3		93 91 79 
60	9	3		84 76 75 
61	9	3		100 87 78 
62	9	2		94 79 
63	9	2		78 76 
64	9	2		99 77 
65	9	2		78 77 
66	9	2		93 77 
67	9	2		92 78 
68	9	2		79 75 
69	9	1		75 
70	9	1		79 
71	9	1		77 
72	9	1		75 
73	9	1		88 
74	9	1		75 
75	9	1		102 
76	9	1		102 
77	9	1		102 
78	9	1		102 
79	9	1		102 
80	9	1		102 
81	9	1		102 
82	9	1		102 
83	9	1		102 
84	9	1		102 
85	9	1		102 
86	9	1		102 
87	9	1		102 
88	9	1		102 
89	9	1		102 
90	9	1		102 
91	9	1		102 
92	9	1		102 
93	9	1		102 
94	9	1		102 
95	9	1		102 
96	9	1		102 
97	9	1		102 
98	9	1		102 
99	9	1		102 
100	9	1		102 
101	9	1		102 
102	1	0		
************************************************************************
REQUESTS/DURATIONS
jobnr.	mode	dur	R1	R2	R3	R4	N1	N2	
------------------------------------------------------------------------
1	1	0	0	0	0	0	0	0	
2	1	1	3	5	2	4	24	22	
	2	2	2	4	1	3	21	20	
	3	3	2	3	1	3	20	17	
	4	10	2	3	1	2	19	16	
	5	12	2	3	1	2	19	15	
	6	16	1	2	1	2	17	12	
	7	18	1	2	1	2	15	12	
	8	21	1	1	1	1	14	10	
	9	27	1	1	1	1	13	8	
3	1	1	5	3	5	4	3	7	
	2	2	4	3	5	4	3	7	
	3	5	3	3	5	4	3	7	
	4	8	3	3	5	3	3	7	
	5	17	3	2	5	3	3	7	
	6	21	2	2	5	3	3	7	
	7	24	1	2	5	3	3	7	
	8	25	1	2	5	2	3	7	
	9	26	1	2	5	2	3	6	
4	1	1	3	4	4	5	30	24	
	2	10	3	3	4	5	28	22	
	3	11	3	3	4	5	24	22	
	4	15	3	3	4	5	22	20	
	5	18	2	2	4	5	21	20	
	6	19	2	2	4	5	19	18	
	7	20	1	1	4	5	18	17	
	8	21	1	1	4	5	17	16	
	9	28	1	1	4	5	15	16	
5	1	3	1	1	5	5	14	19	
	2	6	1	1	4	4	12	16	
	3	7	1	1	4	4	12	14	
	4	12	1	1	4	4	9	13	
	5	17	1	1	3	4	9	12	
	6	20	1	1	3	3	7	11	
	7	23	1	1	3	3	4	8	
	8	25	1	1	2	3	3	8	
	9	30	1	1	2	3	1	6	
6	1	2	4	4	3	3	13	28	
	2	3	3	4	2	2	12	26	
	3	4	3	4	2	2	12	25	
	4	10	3	4	2	2	11	25	
	5	13	2	4	2	2	10	25	
	6	21	2	4	2	2	8	25	
	7	22	2	4	2	2	8	24	
	8	27	1	4	2	2	7	24	
	9	28	1	4	2	2	5	23	
7	1	4	3	3	5	3	10	24	
	2	6	2	2	4	2	9	22	
	3	7	2	2	4	2	8	22	
	4	11	2	2	4	2	6	22	
	5	12	2	2	3	1	5	21	
	6	13	2	2	3	1	4	21	
	7	16	2	2	3	1	3	20	
	8	18	2	2	2	1	2	20	
	9	24	2	2	2	1	2	19	
8	1	6	5	5	3	4	28	24	
	2	7	4	5	2	4	25	24	
	3	10	3	5	2	3	21	24	
	4	12	3	5	2	3	18	24	
	5	13	2	5	2	2	15	24	
	6	25	2	5	2	2	14	24	
	7	26	2	5	2	2	12	24	
	8	27	1	5	2	1	9	24	
	9	28	1	5	2	1	4	24	
9	1	2	3	4	2	2	21	11	
	2	3	2	4	2	1	21	11	
	3	7	2	4	2	1	19	10	
	4	12	2	4	2	1	18	9	
	5	16	2	4	2	1	18	7	
	6	17	2	4	2	1	17	6	
	7	18	2	4	2	1	17	5	
	8	29	2	4	2	1	16	5	
	9	30	2	4	2	1	15	3	
10	1	1	5	5	3	4	14	19	
	2	3	4	4	2	4	13	19	
	3	7	4	4	2	4	13	18	
	4	9	4	4	2	4	13	17	
	5	15	4	3	2	3	12	18	
	6	17	4	3	1	3	12	18	
	7	20	4	3	1	3	12	17	
	8	21	4	3	1	2	11	17	
	9	27	4	3	1	2	11	16	
11	1	9	4	3	4	4	15	20	
	2	11	4	3	3	4	14	19	
	3	14	4	3	3	4	12	19	
	4	19	4	3	3	4	12	17	
	5	20	4	3	3	4	11	17	
	6	22	4	3	2	4	10	17	
	7	24	4	3	2	4	9	16	
	8	26	4	3	2	4	8	15	
	9	30	4	3	2	4	8	14	
12	1	2	5	4	3	4	13	3	
	2	4	4	3	3	3	12	3	
	3	6	4	3	3	3	12	2	
	4	8	4	3	3	3	12	1	
	5	9	4	3	2	3	11	4	
	6	10	4	3	2	3	11	3	
	7	19	4	3	2	3	11	2	
	8	23	4	3	1	3	11	3	
	9	24	4	3	1	3	11	2	
13	1	1	3	4	4	5	20	27	
	2	7	2	3	4	4	20	25	
	3	9	2	3	3	3	16	25	
	4	10	2	3	3	3	16	23	
	5	12	2	2	2	2	14	21	
	6	14	1	2	2	2	13	20	
	7	18	1	2	1	2	10	18	
	8	22	1	1	1	1	7	17	
	9	25	1	1	1	1	6	16	
14	1	4	3	2	2	4	24	19	
	2	6	3	2	1	4	23	18	
	3	7	3	2	1	3	22	16	
	4	11	3	2	1	3	19	16	
	5	13	2	2	1	2	16	15	
	6	21	2	1	1	2	16	14	
	7	22	1	1	1	1	14	14	
	8	27	1	1	1	1	11	12	
	9	28	1	1	1	1	9	12	
15	1	6	4	5	2	4	29	24	
	2	7	4	4	2	4	29	23	
	3	8	4	3	2	4	27	22	
	4	10	3	3	2	4	26	21	
	5	13	3	3	2	4	25	21	
	6	14	3	2	2	4	24	21	
	7	15	2	1	2	4	23	20	
	8	26	2	1	2	4	23	19	
	9	30	2	1	2	4	21	19	
16	1	3	5	4	4	4	20	25	
	2	4	4	4	4	3	20	25	
	3	5	4	4	4	3	20	24	
	4	15	4	3	4	2	20	24	
	5	17	3	2	4	2	19	24	
	6	18	3	2	4	2	19	23	
	7	20	2	1	4	2	19	24	
	8	21	2	1	4	1	19	24	
	9	30	2	1	4	1	19	23	
17	1	4	1	5	5	4	17	16	
	2	6	1	4	4	3	14	14	
	3	7	1	4	4	3	13	13	
	4	14	1	4	3	3	10	11	
	5	16	1	4	3	3	8	9	
	6	17	1	3	3	2	6	7	
	7	22	1	3	2	2	4	7	
	8	26	1	3	2	2	2	4	
	9	29	1	3	2	2	2	3	
18	1	2	1	2	3	5	29	13	
	2	4	1	2	3	4	29	12	
	3	7	1	2	3	4	29	11	
	4	8	1	2	3	3	29	9	
	5	9	1	2	3	3	29	8	
	6	11	1	2	2	2	29	7	
	7	12	1	2	2	1	29	7	
	8	17	1	2	2	1	29	6	
	9	26	1	2	2	1	29	4	
19	1	1	4	5	4	3	15	25	
	2	2	3	4	4	2	15	25	
	3	13	3	4	4	2	14	25	
	4	16	3	4	4	2	13	25	
	5	17	3	4	4	2	12	24	
	6	22	3	3	4	2	10	24	
	7	24	3	3	4	2	10	23	
	8	26	3	3	4	2	8	24	
	9	27	3	3	4	2	7	24	
20	1	5	3	3	4	1	28	24	
	2	11	3	2	3	1	27	23	
	3	12	3	2	3	1	27	22	
	4	14	2	2	3	1	27	23	
	5	17	2	2	3	1	27	22	
	6	25	2	1	3	1	27	22	
	7	26	2	1	3	1	27	21	
	8	28	1	1	3	1	27	22	
	9	29	1	1	3	1	27	21	
21	1	1	1	4	4	4	30	21	
	2	3	1	3	3	3	29	19	
	3	13	1	3	3	3	29	18	
	4	14	1	3	3	3	28	17	
	5	15	1	3	2	3	27	16	
	6	17	1	2	2	3	27	15	
	7	23	1	2	2	3	27	14	
	8	25	1	2	2	3	26	13	
	9	27	1	2	2	3	26	12	
22	1	2	4	4	4	4	23	19	
	2	3	4	3	3	4	23	18	
	3	4	4	3	3	4	23	17	
	4	5	4	3	3	3	23	16	
	5	6	3	3	2	2	23	16	
	6	7	3	2	2	2	23	16	
	7	20	3	2	2	2	23	15	
	8	21	3	2	2	1	23	13	
	9	29	3	2	2	1	23	12	
23	1	5	4	4	5	4	26	17	
	2	8	4	3	4	3	26	17	
	3	10	4	3	4	3	24	17	
	4	11	4	3	3	2	24	17	
	5	13	4	3	2	2	21	17	
	6	16	4	2	2	2	21	17	
	7	26	4	2	1	2	19	17	
	8	27	4	2	1	1	19	17	
	9	28	4	2	1	1	18	17	
24	1	2	3	3	5	4	29	8	
	2	6	3	2	4	3	28	8	
	3	7	3	2	4	3	28	7	
	4	7	3	2	4	3	27	8	
	5	12	3	1	4	2	26	9	
	6	13	3	1	4	2	26	8	
	7	14	3	1	4	2	26	7	
	8	23	3	1	4	2	25	8	
	9	30	3	1	4	2	25	7	
25	1	2	3	3	5	5	27	12	
	2	5	2	2	5	4	25	12	
	3	11	2	2	5	4	23	12	
	4	12	2	2	5	4	22	12	
	5	17	2	2	5	3	22	11	
	6	19	2	1	5	3	21	11	
	7	21	2	1	5	2	20	10	
	8	22	2	1	5	2	18	10	
	9	26	2	1	5	2	18	9	
26	1	2	2	3	5	4	18	20	
	2	3	2	2	4	3	18	20	
	3	13	2	2	4	3	17	20	
	4	15	2	2	3	3	16	20	
	5	16	2	2	3	3	14	20	
	6	18	2	2	3	3	14	19	
	7	20	2	2	2	3	13	20	
	8	28	2	2	2	3	11	20	
	9	30	2	2	2	3	11	19	
27	1	6	3	4	5	3	21	19	
	2	7	3	4	5	2	20	17	
	3	13	3	4	5	2	19	17	
	4	16	3	4	5	2	19	14	
	5	23	2	4	5	2	18	11	
	6	24	2	4	5	1	17	11	
	7	28	2	4	5	1	16	8	
	8	29	2	4	5	1	16	5	
	9	30	2	4	5	1	15	4	
28	1	1	5	4	4	3	18	25	
	2	4	4	4	3	3	18	21	
	3	7	3	4	3	3	18	19	
	4	11	3	4	2	3	18	17	
	5	15	3	4	2	3	17	14	
	6	20	2	4	2	3	17	12	
	7	22	2	4	2	3	17	9	
	8	23	1	4	1	3	17	8	
	9	25	1	4	1	3	17	4	
29	1	1	4	5	3	2	26	27	
	2	2	3	5	2	1	24	26	
	3	6	3	5	2	1	23	25	
	4	7	3	5	2	1	22	24	
	5	8	2	5	2	1	20	23	
	6	11	2	5	2	1	18	23	
	7	14	1	5	2	1	17	22	
	8	15	1	5	2	1	17	20	
	9	17	1	5	2	1	15	20	
30	1	1	3	3	5	3	19	5	
	2	8	2	2	5	3	18	5	
	3	10	2	2	5	3	15	4	
	4	14	2	2	5	3	14	4	
	5	15	2	2	5	3	12	4	
	6	18	2	2	5	3	10	3	
	7	19	2	2	5	3	9	3	
	8	25	2	2	5	3	8	2	
	9	26	2	2	5	3	7	2	
31	1	1	1	3	4	4	13	27	
	2	2	1	3	3	3	13	25	
	3	3	1	3	3	3	11	21	
	4	4	1	3	3	3	10	18	
	5	7	1	3	2	2	10	16	
	6	11	1	3	2	2	8	16	
	7	12	1	3	1	2	8	11	
	8	17	1	3	1	2	7	10	
	9	28	1	3	1	2	6	9	
32	1	1	3	3	3	4	14	10	
	2	3	3	3	3	4	13	9	
	3	9	3	3	3	4	13	8	
	4	11	3	3	3	3	13	8	
	5	13	3	3	3	2	12	7	
	6	14	3	3	3	2	12	6	
	7	19	3	3	3	2	11	6	
	8	22	3	3	3	1	11	5	
	9	28	3	3	3	1	11	4	
33	1	3	3	4	4	4	21	24	
	2	11	2	3	4	4	19	22	
	3	16	2	3	4	4	17	20	
	4	17	2	3	4	4	16	20	
	5	20	2	3	4	4	16	18	
	6	21	1	3	4	4	15	18	
	7	22	1	3	4	4	14	16	
	8	27	1	3	4	4	12	16	
	9	29	1	3	4	4	12	14	
34	1	1	4	3	2	3	22	19	
	2	2	3	3	2	3	22	17	
	3	8	3	3	2	3	21	16	
	4	9	3	3	2	3	20	16	
	5	12	2	2	1	3	20	14	
	6	14	2	2	1	3	20	13	
	7	22	2	2	1	3	19	13	
	8	26	1	2	1	3	18	11	
	9	29	1	2	1	3	18	10	
35	1	8	5	4	4	5	18	12	
	2	11	4	4	4	4	17	12	
	3	13	4	4	3	4	17	12	
	4	15	4	4	3	4	16	12	
	5	16	4	3	2	4	15	12	
	6	17	4	3	2	3	15	11	
	7	18	4	3	1	3	15	11	
	8	24	4	3	1	3	14	11	
	9	30	4	3	1	3	14	10	
36	1	4	5	4	4	2	9	27	
	2	5	4	4	4	2	9	26	
	3	9	4	4	4	2	8	23	
	4	10	3	4	4	2	8	20	
	5	21	3	4	4	2	7	20	
	6	24	2	3	3	2	7	17	
	7	25	1	3	3	2	6	16	
	8	27	1	3	3	2	6	13	
	9	30	1	3	3	2	6	12	
37	1	2	4	3	4	3	7	17	
	2	3	3	3	3	3	6	15	
	3	4	3	3	3	3	6	14	
	4	14	3	3	3	3	6	13	
	5	15	3	2	3	3	5	11	
	6	17	3	2	2	3	5	9	
	7	22	3	2	2	3	5	8	
	8	27	3	1	2	3	4	8	
	9	28	3	1	2	3	4	5	
38	1	1	2	3	4	5	25	17	
	2	6	2	3	4	4	21	16	
	3	7	2	3	4	4	18	15	
	4	13	2	3	4	4	15	15	
	5	14	2	3	3	3	15	14	
	6	22	2	3	3	3	12	14	
	7	24	2	3	3	3	8	13	
	8	28	2	3	3	3	8	12	
	9	29	2	3	3	3	4	12	
39	1	4	4	2	2	4	28	20	
	2	9	4	2	2	4	26	17	
	3	14	4	2	2	4	24	17	
	4	16	3	2	2	4	24	14	
	5	21	3	2	2	4	21	12	
	6	22	3	1	2	4	20	8	
	7	23	2	1	2	4	20	7	
	8	24	2	1	2	4	18	5	
	9	27	2	1	2	4	17	1	
40	1	4	4	5	4	1	24	24	
	2	7	4	5	3	1	22	23	
	3	8	4	5	3	1	19	23	
	4	15	4	5	3	1	17	23	
	5	18	3	5	3	1	16	23	
	6	19	3	5	3	1	13	23	
	7	25	2	5	3	1	13	23	
	8	28	2	5	3	1	9	23	
	9	29	2	5	3	1	8	23	
41	1	11	5	4	3	5	10	14	
	2	12	5	3	2	5	9	13	
	3	16	5	3	2	5	8	13	
	4	19	5	3	2	5	7	13	
	5	20	5	3	2	5	6	12	
	6	23	5	2	1	5	4	12	
	7	24	5	2	1	5	4	11	
	8	26	5	2	1	5	2	10	
	9	27	5	2	1	5	2	9	
42	1	7	1	4	2	2	21	29	
	2	10	1	3	2	1	19	27	
	3	14	1	3	2	1	17	27	
	4	16	1	3	2	1	14	26	
	5	17	1	3	2	1	11	25	
	6	18	1	3	1	1	11	25	
	7	22	1	3	1	1	9	24	
	8	24	1	3	1	1	5	23	
	9	27	1	3	1	1	4	23	
43	1	2	5	3	2	2	11	27	
	2	8	4	3	2	1	11	27	
	3	20	4	3	2	1	10	25	
	4	23	4	3	2	1	10	22	
	5	25	3	3	2	1	9	20	
	6	26	3	3	2	1	9	17	
	7	27	2	3	2	1	9	17	
	8	29	2	3	2	1	8	15	
	9	30	2	3	2	1	8	11	
44	1	3	5	5	5	4	17	23	
	2	4	4	4	4	3	15	22	
	3	8	4	3	4	3	15	21	
	4	12	4	3	4	3	15	20	
	5	13	4	2	4	3	14	20	
	6	20	4	2	4	2	13	19	
	7	25	4	1	4	2	13	19	
	8	29	4	1	4	2	12	19	
	9	30	4	1	4	2	12	18	
45	1	7	5	4	2	3	8	17	
	2	11	4	4	2	3	8	16	
	3	14	4	4	2	3	7	16	
	4	17	3	4	2	2	6	16	
	5	18	3	3	2	2	5	15	
	6	19	2	3	2	2	4	14	
	7	21	2	2	2	2	3	13	
	8	22	1	2	2	1	1	13	
	9	25	1	2	2	1	1	12	
46	1	3	3	4	5	1	14	16	
	2	7	2	3	4	1	14	15	
	3	10	2	3	4	1	14	14	
	4	12	2	2	4	1	14	14	
	5	23	1	2	4	1	14	13	
	6	24	1	2	4	1	13	13	
	7	27	1	2	4	1	13	12	
	8	27	1	1	4	1	13	13	
	9	28	1	1	4	1	13	12	
47	1	4	3	3	3	5	30	8	
	2	6	3	2	3	4	29	8	
	3	9	3	2	3	3	27	6	
	4	10	3	2	2	3	26	5	
	5	16	2	1	2	2	26	5	
	6	21	2	1	2	2	24	3	
	7	23	2	1	2	2	24	2	
	8	26	2	1	1	1	23	1	
	9	27	2	1	1	1	22	1	
48	1	6	4	3	4	5	18	30	
	2	12	4	2	4	4	18	27	
	3	13	3	2	4	4	16	27	
	4	14	3	2	4	3	16	25	
	5	15	3	2	4	3	15	23	
	6	20	2	2	3	2	14	21	
	7	23	2	2	3	2	13	21	
	8	24	1	2	3	1	13	18	
	9	26	1	2	3	1	12	17	
49	1	3	4	4	2	5	18	17	
	2	4	3	4	2	4	16	14	
	3	6	3	4	2	4	16	13	
	4	8	3	4	2	4	15	12	
	5	13	3	4	2	4	15	10	
	6	22	2	4	2	4	14	9	
	7	25	2	4	2	4	14	8	
	8	27	2	4	2	4	12	7	
	9	28	2	4	2	4	12	6	
50	1	9	3	1	2	5	15	22	
	2	15	3	1	1	4	14	19	
	3	18	3	1	1	4	14	18	
	4	19	2	1	1	4	13	17	
	5	22	2	1	1	3	12	16	
	6	23	2	1	1	3	11	16	
	7	25	2	1	1	3	11	15	
	8	28	1	1	1	3	9	14	
	9	30	1	1	1	3	9	12	
51	1	5	5	5	3	1	17	23	
	2	9	4	4	3	1	15	22	
	3	10	4	4	3	1	15	18	
	4	11	3	4	3	1	13	18	
	5	12	3	4	3	1	12	16	
	6	26	3	4	3	1	12	12	
	7	27	3	4	3	1	11	10	
	8	28	2	4	3	1	10	9	
	9	29	2	4	3	1	9	7	
52	1	8	4	2	3	4	23	20	
	2	9	3	2	3	4	20	18	
	3	10	3	2	3	4	20	16	
	4	11	3	2	3	4	16	15	
	5	13	3	2	3	4	15	13	
	6	15	3	2	2	4	12	10	
	7	24	3	2	2	4	12	7	
	8	28	3	2	2	4	10	6	
	9	30	3	2	2	4	7	4	
53	1	2	3	2	5	4	23	12	
	2	6	3	2	4	3	20	10	
	3	10	3	2	4	3	18	9	
	4	12	2	2	4	3	17	9	
	5	13	2	2	3	2	12	7	
	6	17	2	1	3	2	12	6	
	7	19	1	1	3	2	10	5	
	8	25	1	1	3	1	8	4	
	9	28	1	1	3	1	6	4	
54	1	2	4	5	4	1	15	22	
	2	5	4	4	3	1	13	21	
	3	8	4	4	3	1	12	19	
	4	10	4	3	3	1	11	18	
	5	17	4	3	2	1	11	15	
	6	19	3	3	2	1	10	14	
	7	20	3	2	2	1	8	13	
	8	24	3	2	1	1	8	12	
	9	25	3	2	1	1	6	10	
55	1	3	5	2	5	4	8	28	
	2	5	5	1	4	4	8	25	
	3	8	5	1	4	4	8	23	
	4	11	5	1	3	4	8	23	
	5	12	5	1	2	4	8	21	
	6	21	5	1	2	3	7	18	
	7	23	5	1	1	3	7	18	
	8	26	5	1	1	3	7	14	
	9	28	5	1	1	3	7	13	
56	1	3	3	3	3	2	13	14	
	2	8	2	3	3	2	11	14	
	3	9	2	3	3	2	10	14	
	4	10	2	3	3	2	9	14	
	5	13	1	2	3	1	8	14	
	6	16	1	2	3	1	6	14	
	7	18	1	2	3	1	4	14	
	8	19	1	2	3	1	4	13	
	9	25	1	2	3	1	3	14	
57	1	1	5	4	3	5	15	19	
	2	3	4	4	2	4	15	18	
	3	5	4	4	2	4	13	17	
	4	8	4	4	2	3	12	16	
	5	14	3	4	2	3	9	15	
	6	17	3	4	1	3	8	14	
	7	22	3	4	1	2	7	13	
	8	26	3	4	1	2	3	12	
	9	27	3	4	1	2	2	12	
58	1	3	3	4	3	5	22	26	
	2	9	3	4	3	4	21	25	
	3	16	3	4	3	4	17	25	
	4	19	2	3	3	3	15	24	
	5	23	2	3	2	2	14	23	
	6	24	2	3	2	2	13	23	
	7	25	2	2	2	2	11	23	
	8	26	1	2	2	1	7	22	
	9	27	1	2	2	1	6	22	
59	1	7	2	2	5	1	17	30	
	2	19	1	1	4	1	17	28	
	3	20	1	1	4	1	16	28	
	4	21	1	1	4	1	15	28	
	5	22	1	1	3	1	15	27	
	6	23	1	1	3	1	14	26	
	7	27	1	1	3	1	14	25	
	8	28	1	1	2	1	13	25	
	9	29	1	1	2	1	13	24	
60	1	2	2	4	3	4	21	28	
	2	3	1	4	3	4	21	24	
	3	8	1	4	3	4	19	24	
	4	9	1	4	3	4	16	21	
	5	19	1	3	2	4	12	18	
	6	20	1	3	2	3	10	18	
	7	22	1	3	2	3	8	14	
	8	25	1	2	1	3	6	14	
	9	28	1	2	1	3	6	10	
61	1	8	3	3	4	5	22	19	
	2	13	2	3	3	5	18	19	
	3	17	2	3	3	5	17	19	
	4	18	2	3	3	5	17	18	
	5	19	2	3	2	5	14	18	
	6	20	2	3	2	5	12	17	
	7	21	2	3	2	5	11	17	
	8	24	2	3	1	5	9	16	
	9	30	2	3	1	5	8	16	
62	1	2	3	5	5	3	26	21	
	2	4	3	4	4	2	20	19	
	3	10	3	4	4	2	20	16	
	4	14	3	4	4	2	18	13	
	5	18	2	3	3	2	15	12	
	6	25	2	3	3	1	10	11	
	7	27	1	3	3	1	9	9	
	8	28	1	3	3	1	7	6	
	9	29	1	3	3	1	3	3	
63	1	2	3	3	5	2	27	20	
	2	9	3	3	5	2	24	20	
	3	12	3	3	5	2	23	20	
	4	12	3	3	5	2	20	21	
	5	13	3	3	5	2	20	20	
	6	15	3	3	5	2	17	20	
	7	21	3	3	5	2	16	20	
	8	23	3	3	5	2	15	20	
	9	25	3	3	5	2	13	20	
64	1	1	2	5	1	5	28	29	
	2	7	2	4	1	4	23	26	
	3	14	2	3	1	4	23	23	
	4	17	2	3	1	4	18	18	
	5	18	2	2	1	3	15	16	
	6	21	2	2	1	3	13	11	
	7	27	2	1	1	3	9	8	
	8	28	2	1	1	3	6	5	
	9	30	2	1	1	3	4	4	
65	1	6	4	1	4	5	20	16	
	2	8	4	1	4	4	20	14	
	3	10	4	1	4	4	18	14	
	4	15	4	1	3	4	17	11	
	5	17	4	1	3	3	15	9	
	6	23	4	1	3	3	13	6	
	7	26	4	1	3	2	12	5	
	8	28	4	1	2	2	9	2	
	9	29	4	1	2	2	9	1	
66	1	3	3	4	3	4	12	18	
	2	6	3	4	3	4	12	17	
	3	8	3	4	3	4	12	15	
	4	14	3	4	3	4	12	12	
	5	15	3	4	2	3	12	12	
	6	16	2	4	2	3	12	11	
	7	17	2	4	2	3	12	8	
	8	24	2	4	1	3	12	7	
	9	29	2	4	1	3	12	5	
67	1	8	3	4	4	5	29	22	
	2	12	3	4	4	4	29	23	
	3	13	3	4	4	4	29	22	
	4	16	3	4	4	4	29	21	
	5	17	2	4	3	3	29	22	
	6	22	2	4	3	3	29	21	
	7	25	2	4	3	2	29	21	
	8	27	1	4	3	2	29	21	
	9	28	1	4	3	2	29	20	
68	1	5	1	3	4	5	27	9	
	2	6	1	3	4	4	27	9	
	3	9	1	3	4	3	26	8	
	4	10	1	3	4	3	23	8	
	5	11	1	3	4	3	21	7	
	6	12	1	3	4	2	21	7	
	7	20	1	3	4	2	20	6	
	8	21	1	3	4	1	18	6	
	9	29	1	3	4	1	17	5	
69	1	7	5	2	1	2	28	25	
	2	9	4	2	1	1	27	25	
	3	11	4	2	1	1	24	24	
	4	12	4	2	1	1	20	24	
	5	13	4	2	1	1	15	24	
	6	14	4	2	1	1	13	23	
	7	15	4	2	1	1	12	23	
	8	16	4	2	1	1	6	22	
	9	25	4	2	1	1	6	21	
70	1	2	4	4	1	2	29	26	
	2	6	4	3	1	2	29	21	
	3	7	4	3	1	2	27	21	
	4	9	3	2	1	2	27	19	
	5	15	3	2	1	2	25	15	
	6	21	3	2	1	2	25	13	
	7	27	3	1	1	2	23	13	
	8	29	2	1	1	2	23	9	
	9	30	2	1	1	2	22	8	
71	1	5	3	4	5	4	25	20	
	2	8	3	4	5	4	22	16	
	3	9	3	4	5	4	21	15	
	4	15	3	3	5	4	17	14	
	5	16	3	3	5	4	14	10	
	6	18	3	2	5	4	13	8	
	7	19	3	2	5	4	9	7	
	8	20	3	1	5	4	8	6	
	9	22	3	1	5	4	5	3	
72	1	1	3	1	2	2	28	16	
	2	2	3	1	1	1	28	15	
	3	13	3	1	1	1	27	15	
	4	14	2	1	1	1	27	14	
	5	23	2	1	1	1	26	13	
	6	25	2	1	1	1	25	14	
	7	26	2	1	1	1	25	13	
	8	27	1	1	1	1	25	12	
	9	29	1	1	1	1	24	12	
73	1	2	4	5	1	2	25	18	
	2	4	3	4	1	2	25	15	
	3	6	3	4	1	2	23	15	
	4	13	2	4	1	2	23	12	
	5	14	2	4	1	2	22	11	
	6	15	2	3	1	2	21	11	
	7	22	1	3	1	2	20	10	
	8	23	1	3	1	2	19	8	
	9	29	1	3	1	2	19	7	
74	1	1	4	3	4	2	22	24	
	2	3	4	3	4	1	19	23	
	3	8	4	3	3	1	16	23	
	4	9	4	3	3	1	15	23	
	5	10	4	3	3	1	10	22	
	6	15	3	3	2	1	9	22	
	7	17	3	3	2	1	8	22	
	8	27	3	3	1	1	5	22	
	9	29	3	3	1	1	2	22	
75	1	2	2	3	4	2	27	9	
	2	4	2	3	4	1	25	9	
	3	7	2	3	4	1	22	9	
	4	10	2	3	4	1	21	8	
	5	11	2	2	4	1	17	8	
	6	19	2	2	4	1	17	7	
	7	23	2	2	4	1	14	7	
	8	28	2	1	4	1	11	7	
	9	30	2	1	4	1	11	6	
76	1	1	4	2	3	2	25	24	
	2	3	4	2	3	2	24	20	
	3	9	4	2	3	2	24	19	
	4	10	4	2	3	2	24	16	
	5	11	3	1	2	2	24	15	
	6	14	3	1	2	2	23	15	
	7	18	3	1	2	2	23	12	
	8	19	3	1	2	2	23	10	
	9	29	3	1	2	2	23	9	
77	1	12	1	4	5	4	30	23	
	2	13	1	3	5	3	28	20	
	3	14	1	3	5	3	24	19	
	4	15	1	3	5	2	24	15	
	5	16	1	3	5	2	21	14	
	6	20	1	3	5	2	19	12	
	7	27	1	3	5	1	16	8	
	8	28	1	3	5	1	16	5	
	9	30	1	3	5	1	12	5	
78	1	4	4	4	4	1	17	21	
	2	5	4	4	4	1	16	18	
	3	7	4	4	4	1	15	18	
	4	9	4	4	3	1	15	14	
	5	11	3	3	3	1	14	14	
	6	12	3	3	3	1	12	10	
	7	22	3	3	2	1	11	8	
	8	24	3	2	2	1	10	7	
	9	26	3	2	2	1	10	4	
79	1	5	3	4	3	4	24	21	
	2	7	3	3	2	4	24	16	
	3	10	3	3	2	4	21	15	
	4	14	3	3	2	4	21	13	
	5	16	3	3	2	4	20	9	
	6	21	3	2	2	4	17	9	
	7	22	3	2	2	4	17	6	
	8	25	3	2	2	4	14	5	
	9	26	3	2	2	4	13	2	
80	1	1	5	3	2	4	13	17	
	2	7	4	3	1	4	13	17	
	3	12	4	3	1	4	13	16	
	4	13	3	3	1	4	12	16	
	5	17	2	3	1	4	12	14	
	6	21	2	3	1	4	11	14	
	7	24	1	3	1	4	11	13	
	8	27	1	3	1	4	10	12	
	9	30	1	3	1	4	10	11	
81	1	7	5	5	3	4	27	15	
	2	13	4	4	3	4	23	14	
	3	14	4	3	3	4	21	13	
	4	15	4	3	3	4	20	12	
	5	16	4	3	3	4	17	12	
	6	19	3	2	3	4	15	10	
	7	25	3	1	3	4	14	9	
	8	26	3	1	3	4	12	9	
	9	27	3	1	3	4	10	7	
82	1	2	3	1	2	4	24	23	
	2	3	3	1	2	3	22	22	
	3	11	3	1	2	3	22	20	
	4	13	3	1	2	3	20	20	
	5	21	3	1	2	2	19	18	
	6	22	2	1	2	2	16	17	
	7	24	2	1	2	1	15	17	
	8	27	2	1	2	1	12	16	
	9	28	2	1	2	1	11	14	
83	1	2	5	5	4	2	21	21	
	2	12	4	4	3	2	19	20	
	3	15	4	4	3	2	19	17	
	4	17	4	4	3	2	17	15	
	5	24	3	4	2	2	16	14	
	6	25	3	4	2	1	15	12	
	7	26	3	4	2	1	15	11	
	8	27	3	4	1	1	14	7	
	9	30	3	4	1	1	12	6	
84	1	2	4	5	2	3	20	26	
	2	3	3	4	2	3	20	24	
	3	4	3	4	2	3	19	23	
	4	7	2	4	2	2	18	21	
	5	12	2	4	2	2	16	21	
	6	15	2	4	2	2	15	19	
	7	16	1	4	2	2	14	18	
	8	19	1	4	2	1	13	18	
	9	26	1	4	2	1	12	17	
85	1	2	4	4	1	4	22	24	
	2	4	4	4	1	3	21	24	
	3	7	4	4	1	3	21	23	
	4	8	4	3	1	3	20	23	
	5	13	4	3	1	3	20	22	
	6	14	4	2	1	3	20	23	
	7	25	4	2	1	3	19	22	
	8	26	4	1	1	3	19	22	
	9	29	4	1	1	3	19	21	
86	1	1	4	4	5	2	28	24	
	2	2	4	4	4	1	27	20	
	3	4	4	4	4	1	26	19	
	4	6	3	4	3	1	26	17	
	5	10	3	4	3	1	25	16	
	6	14	3	4	3	1	25	14	
	7	21	3	4	3	1	24	14	
	8	24	2	4	2	1	24	13	
	9	29	2	4	2	1	23	11	
87	1	5	5	4	4	2	20	12	
	2	7	4	4	3	2	18	12	
	3	8	4	4	3	2	14	12	
	4	12	4	4	3	2	14	11	
	5	13	3	4	3	2	11	12	
	6	20	3	4	3	2	11	11	
	7	22	2	4	3	2	9	12	
	8	24	2	4	3	2	5	12	
	9	29	2	4	3	2	5	11	
88	1	2	3	5	3	5	23	7	
	2	4	2	4	2	4	21	6	
	3	9	2	4	2	4	19	5	
	4	10	2	3	2	4	16	5	
	5	16	2	3	1	3	15	5	
	6	20	1	2	1	3	15	4	
	7	21	1	2	1	3	12	4	
	8	26	1	1	1	3	12	3	
	9	28	1	1	1	3	10	3	
89	1	5	4	5	1	3	23	16	
	2	6	3	4	1	3	22	14	
	3	13	3	3	1	3	17	11	
	4	17	3	3	1	3	16	9	
	5	18	3	2	1	3	14	8	
	6	23	3	2	1	3	12	8	
	7	24	3	2	1	3	7	4	
	8	27	3	1	1	3	3	4	
	9	28	3	1	1	3	2	1	
90	1	1	5	5	4	5	16	27	
	2	4	4	4	4	4	16	22	
	3	6	4	3	4	3	14	21	
	4	10	4	3	4	3	13	18	
	5	21	4	2	4	3	13	16	
	6	22	4	2	3	2	12	14	
	7	23	4	2	3	2	12	12	
	8	28	4	1	3	1	11	9	
	9	29	4	1	3	1	10	5	
91	1	1	5	3	4	4	25	28	
	2	8	4	2	4	4	24	24	
	3	9	4	2	4	3	24	22	
	4	11	3	2	4	3	24	19	
	5	14	3	1	4	2	23	16	
	6	15	3	1	4	2	23	11	
	7	18	3	1	4	1	23	10	
	8	25	2	1	4	1	23	6	
	9	26	2	1	4	1	23	3	
92	1	10	4	4	5	5	9	9	
	2	13	4	3	4	4	9	9	
	3	16	4	3	4	3	9	9	
	4	17	3	3	4	3	9	9	
	5	18	3	3	4	2	8	9	
	6	19	3	3	4	2	8	8	
	7	21	3	3	4	1	7	9	
	8	25	2	3	4	1	7	9	
	9	30	2	3	4	1	7	8	
93	1	1	5	1	5	4	22	13	
	2	6	4	1	5	3	20	11	
	3	7	3	1	5	3	20	11	
	4	13	3	1	5	2	19	9	
	5	14	2	1	5	2	19	9	
	6	16	2	1	5	2	18	7	
	7	17	1	1	5	2	18	7	
	8	25	1	1	5	1	17	6	
	9	27	1	1	5	1	17	5	
94	1	3	2	2	5	3	28	22	
	2	6	2	1	5	2	25	23	
	3	7	2	1	5	2	25	22	
	4	9	2	1	5	2	21	22	
	5	10	2	1	5	2	18	22	
	6	15	2	1	5	2	16	22	
	7	23	2	1	5	2	14	22	
	8	29	2	1	5	2	14	21	
	9	30	2	1	5	2	12	22	
95	1	9	3	2	1	3	17	25	
	2	12	2	2	1	3	17	24	
	3	13	2	2	1	3	17	23	
	4	20	2	2	1	3	17	22	
	5	22	1	1	1	2	16	22	
	6	23	1	1	1	2	16	21	
	7	24	1	1	1	2	15	19	
	8	25	1	1	1	1	15	18	
	9	26	1	1	1	1	15	17	
96	1	5	5	4	4	2	26	6	
	2	6	5	4	4	2	25	5	
	3	7	5	4	3	2	22	5	
	4	14	5	4	3	2	20	5	
	5	23	5	3	3	2	19	5	
	6	24	5	3	2	2	17	5	
	7	26	5	3	2	2	16	5	
	8	28	5	3	1	2	15	5	
	9	30	5	3	1	2	12	5	
97	1	3	3	2	1	4	12	14	
	2	8	2	2	1	3	11	13	
	3	9	2	2	1	3	11	11	
	4	18	2	2	1	3	8	11	
	5	21	1	2	1	2	8	10	
	6	25	1	2	1	2	5	8	
	7	26	1	2	1	2	4	7	
	8	28	1	2	1	2	3	6	
	9	29	1	2	1	2	1	5	
98	1	7	5	1	3	3	23	16	
	2	10	4	1	2	3	21	14	
	3	16	4	1	2	3	19	14	
	4	17	3	1	2	3	17	12	
	5	18	3	1	2	2	16	12	
	6	19	2	1	1	2	13	12	
	7	25	2	1	1	2	13	10	
	8	28	1	1	1	2	10	10	
	9	30	1	1	1	2	9	9	
99	1	1	1	3	5	3	15	10	
	2	4	1	3	4	2	13	9	
	3	7	1	3	4	2	13	8	
	4	8	1	3	4	2	11	8	
	5	9	1	3	4	1	10	8	
	6	13	1	2	4	1	8	7	
	7	17	1	2	4	1	6	7	
	8	23	1	2	4	1	6	6	
	9	26	1	2	4	1	5	6	
100	1	2	3	4	5	4	7	27	
	2	9	2	3	4	3	6	27	
	3	10	2	3	4	3	6	26	
	4	11	2	3	4	3	4	27	
	5	12	2	3	4	3	4	26	
	6	14	2	3	4	2	3	27	
	7	15	2	3	4	2	2	27	
	8	21	2	3	4	2	1	27	
	9	23	2	3	4	2	1	26	
101	1	5	3	4	5	5	18	20	
	2	6	3	4	4	5	15	20	
	3	7	3	4	4	5	13	19	
	4	12	2	4	4	5	11	19	
	5	14	2	4	3	5	11	19	
	6	21	2	4	3	5	7	18	
	7	25	1	4	3	5	6	18	
	8	26	1	4	2	5	4	17	
	9	28	1	4	2	5	1	17	
102	1	0	0	0	0	0	0	0	
************************************************************************

 RESOURCE AVAILABILITIES 
	R 1	R 2	R 3	R 4	N 1	N 2
	26	27	27	27	1341	1339

************************************************************************
